c An instance of conditional planning (by rintanen@informatik.uni-freiburg.de)
p cnf 206  1123 
e 112 113 114 115 116 117 118 119 120 121 122 123 124 125 126 127 128 129 130 131 132 133 134 135 136 137 138 139 140 141 142 143 144 145 146 147 148 149 150 151 152 153 154 155 156 157 158 159 160 161 162 163 164 165 166 167 168 169 170 171 172 173 174 175 176 177 178 179 180 181 0
r 0.5 192 191 190 189 188 193 0
e 1 2 3 4 5 6 7 8 9 10 11 12 13 14 15 16 17 18 19 20 21 22 23 24 25 26 27 28 29 30 31 32 33 34 35 36 37 38 39 40 41 42 43 44 45 46 47 48 49 50 51 52 53 54 55 56 57 58 59 60 61 62 63 64 65 66 67 68 69 70 71 72 73 74 75 76 77 78 79 80 81 82 83 84 85 86 87 88 89 90 91 92 93 94 95 96 97 98 99 100 101 102 103 104 105 106 107 108 109 110 111 182 183 184 185 186 187 194 195 196 197 198 199 200 201 202 203 204 205 206 0
-189 -190 -191 -192 -193 188 194 0
-189 -190 -191 -192 -193 188 195 0
-189 -190 -191 -192 -193 188 196 0
-189 -190 -191 -192 -193 188 197 0
-189 -190 -191 -192 -193 188 198 0
-189 -190 -191 -192 -193 -199 188 0
-189 -190 -191 -192 -194 188 193 0
-189 -190 -191 -192 188 193 195 0
-189 -190 -191 -192 188 193 196 0
-189 -190 -191 -192 188 193 197 0
-189 -190 -191 -192 188 193 198 0
-189 -190 -191 -192 188 193 199 0
-188 -190 -191 -192 -193 -194 189 0
-188 -190 -191 -192 -193 189 195 0
-188 -190 -191 -192 -193 189 196 0
-188 -190 -191 -192 -193 189 197 0
-188 -190 -191 -192 -193 189 198 0
-188 -190 -191 -192 -193 -199 189 0
-188 -190 -191 -192 189 193 194 0
-188 -190 -191 -192 -195 189 193 0
-188 -190 -191 -192 189 193 196 0
-188 -190 -191 -192 189 193 197 0
-188 -190 -191 -192 189 193 198 0
-188 -190 -191 -192 189 193 199 0
-190 -191 -192 -193 188 189 194 0
-190 -191 -192 -193 -195 188 189 0
-190 -191 -192 -193 188 189 196 0
-190 -191 -192 -193 188 189 197 0
-190 -191 -192 -193 188 189 198 0
-190 -191 -192 -193 -199 188 189 0
-190 -191 -192 -194 188 189 193 0
-190 -191 -192 -195 188 189 193 0
-190 -191 -192 188 189 193 196 0
-190 -191 -192 188 189 193 197 0
-190 -191 -192 188 189 193 198 0
-190 -191 -192 188 189 193 199 0
-188 -189 -191 -192 -193 -194 190 0
-188 -189 -191 -192 -193 -195 190 0
-188 -189 -191 -192 -193 190 196 0
-188 -189 -191 -192 -193 190 197 0
-188 -189 -191 -192 -193 190 198 0
-188 -189 -191 -192 -193 -199 190 0
-188 -189 -191 -192 190 193 194 0
-188 -189 -191 -192 190 193 195 0
-188 -189 -191 -192 -196 190 193 0
-188 -189 -191 -192 190 193 197 0
-188 -189 -191 -192 190 193 198 0
-188 -189 -191 -192 190 193 199 0
-189 -191 -192 -193 188 190 194 0
-189 -191 -192 -193 188 190 195 0
-189 -191 -192 -193 -196 188 190 0
-189 -191 -192 -193 188 190 197 0
-189 -191 -192 -193 188 190 198 0
-189 -191 -192 -193 -199 188 190 0
-189 -191 -192 -194 188 190 193 0
-189 -191 -192 188 190 193 195 0
-189 -191 -192 -196 188 190 193 0
-189 -191 -192 188 190 193 197 0
-189 -191 -192 188 190 193 198 0
-189 -191 -192 188 190 193 199 0
-188 -191 -192 -193 -194 189 190 0
-188 -191 -192 -193 189 190 195 0
-188 -191 -192 -193 -196 189 190 0
-188 -191 -192 -193 189 190 197 0
-188 -191 -192 -193 189 190 198 0
-188 -191 -192 -193 -199 189 190 0
-188 -191 -192 189 190 193 194 0
-188 -191 -192 -195 189 190 193 0
-188 -191 -192 -196 189 190 193 0
-188 -191 -192 189 190 193 197 0
-188 -191 -192 189 190 193 198 0
-188 -191 -192 189 190 193 199 0
-191 -192 -193 188 189 190 194 0
-191 -192 -193 -195 188 189 190 0
-191 -192 -193 -196 188 189 190 0
-191 -192 -193 188 189 190 197 0
-191 -192 -193 188 189 190 198 0
-191 -192 -193 -199 188 189 190 0
-191 -192 -194 188 189 190 193 0
-191 -192 -195 188 189 190 193 0
-191 -192 -196 188 189 190 193 0
-191 -192 188 189 190 193 197 0
-191 -192 188 189 190 193 198 0
-191 -192 188 189 190 193 199 0
-188 -189 -190 -192 -193 -194 191 0
-188 -189 -190 -192 -193 -195 191 0
-188 -189 -190 -192 -193 -196 191 0
-188 -189 -190 -192 -193 191 197 0
-188 -189 -190 -192 -193 191 198 0
-188 -189 -190 -192 -193 -199 191 0
-188 -189 -190 -192 191 193 194 0
-188 -189 -190 -192 191 193 195 0
-188 -189 -190 -192 191 193 196 0
-188 -189 -190 -192 -197 191 193 0
-188 -189 -190 -192 191 193 198 0
-188 -189 -190 -192 191 193 199 0
-189 -190 -192 -193 188 191 194 0
-189 -190 -192 -193 188 191 195 0
-189 -190 -192 -193 188 191 196 0
-189 -190 -192 -193 -197 188 191 0
-189 -190 -192 -193 188 191 198 0
-189 -190 -192 -193 -199 188 191 0
-189 -190 -192 -194 188 191 193 0
-189 -190 -192 188 191 193 195 0
-189 -190 -192 188 191 193 196 0
-189 -190 -192 -197 188 191 193 0
-189 -190 -192 188 191 193 198 0
-189 -190 -192 188 191 193 199 0
-188 -190 -192 -193 -194 189 191 0
-188 -190 -192 -193 189 191 195 0
-188 -190 -192 -193 189 191 196 0
-188 -190 -192 -193 -197 189 191 0
-188 -190 -192 -193 189 191 198 0
-188 -190 -192 -193 -199 189 191 0
-188 -190 -192 189 191 193 194 0
-188 -190 -192 -195 189 191 193 0
-188 -190 -192 189 191 193 196 0
-188 -190 -192 -197 189 191 193 0
-188 -190 -192 189 191 193 198 0
-188 -190 -192 189 191 193 199 0
-190 -192 -193 188 189 191 194 0
-190 -192 -193 -195 188 189 191 0
-190 -192 -193 188 189 191 196 0
-190 -192 -193 -197 188 189 191 0
-190 -192 -193 188 189 191 198 0
-190 -192 -193 -199 188 189 191 0
-190 -192 -194 188 189 191 193 0
-190 -192 -195 188 189 191 193 0
-190 -192 188 189 191 193 196 0
-190 -192 -197 188 189 191 193 0
-190 -192 188 189 191 193 198 0
-190 -192 188 189 191 193 199 0
-188 -189 -192 -193 -194 190 191 0
-188 -189 -192 -193 -195 190 191 0
-188 -189 -192 -193 190 191 196 0
-188 -189 -192 -193 -197 190 191 0
-188 -189 -192 -193 190 191 198 0
-188 -189 -192 -193 -199 190 191 0
-188 -189 -192 190 191 193 194 0
-188 -189 -192 190 191 193 195 0
-188 -189 -192 -196 190 191 193 0
-188 -189 -192 -197 190 191 193 0
-188 -189 -192 190 191 193 198 0
-188 -189 -192 190 191 193 199 0
-189 -192 -193 188 190 191 194 0
-189 -192 -193 188 190 191 195 0
-189 -192 -193 -196 188 190 191 0
-189 -192 -193 -197 188 190 191 0
-189 -192 -193 188 190 191 198 0
-189 -192 -193 -199 188 190 191 0
-189 -192 -194 188 190 191 193 0
-189 -192 188 190 191 193 195 0
-189 -192 -196 188 190 191 193 0
-189 -192 -197 188 190 191 193 0
-189 -192 188 190 191 193 198 0
-189 -192 188 190 191 193 199 0
-188 -192 -193 -194 189 190 191 0
-188 -192 -193 189 190 191 195 0
-188 -192 -193 -196 189 190 191 0
-188 -192 -193 -197 189 190 191 0
-188 -192 -193 189 190 191 198 0
-188 -192 -193 -199 189 190 191 0
-188 -192 189 190 191 193 194 0
-188 -192 -195 189 190 191 193 0
-188 -192 -196 189 190 191 193 0
-188 -192 -197 189 190 191 193 0
-188 -192 189 190 191 193 198 0
-188 -192 189 190 191 193 199 0
-192 -193 188 189 190 191 194 0
-192 -193 -195 188 189 190 191 0
-192 -193 -196 188 189 190 191 0
-192 -193 -197 188 189 190 191 0
-192 -193 188 189 190 191 198 0
-192 -193 -199 188 189 190 191 0
-192 -194 188 189 190 191 193 0
-192 -195 188 189 190 191 193 0
-192 -196 188 189 190 191 193 0
-192 -197 188 189 190 191 193 0
-192 188 189 190 191 193 198 0
-192 188 189 190 191 193 199 0
-188 -189 -190 -191 -193 -194 192 0
-188 -189 -190 -191 -193 -195 192 0
-188 -189 -190 -191 -193 -196 192 0
-188 -189 -190 -191 -193 -197 192 0
-188 -189 -190 -191 -193 192 198 0
-188 -189 -190 -191 -193 -199 192 0
-188 -189 -190 -191 192 193 194 0
-188 -189 -190 -191 192 193 195 0
-188 -189 -190 -191 192 193 196 0
-188 -189 -190 -191 192 193 197 0
-188 -189 -190 -191 -198 192 193 0
-188 -189 -190 -191 192 193 199 0
-189 -190 -191 -193 188 192 194 0
-189 -190 -191 -193 188 192 195 0
-189 -190 -191 -193 188 192 196 0
-189 -190 -191 -193 188 192 197 0
-189 -190 -191 -193 -198 188 192 0
-189 -190 -191 -193 -199 188 192 0
-189 -190 -191 -194 188 192 193 0
-189 -190 -191 188 192 193 195 0
-189 -190 -191 188 192 193 196 0
-189 -190 -191 188 192 193 197 0
-189 -190 -191 -198 188 192 193 0
-189 -190 -191 188 192 193 199 0
-188 -190 -191 -193 -194 189 192 0
-188 -190 -191 -193 189 192 195 0
-188 -190 -191 -193 189 192 196 0
-188 -190 -191 -193 189 192 197 0
-188 -190 -191 -193 -198 189 192 0
-188 -190 -191 -193 -199 189 192 0
-188 -190 -191 189 192 193 194 0
-188 -190 -191 -195 189 192 193 0
-188 -190 -191 189 192 193 196 0
-188 -190 -191 189 192 193 197 0
-188 -190 -191 -198 189 192 193 0
-188 -190 -191 189 192 193 199 0
-190 -191 -193 188 189 192 194 0
-190 -191 -193 -195 188 189 192 0
-190 -191 -193 188 189 192 196 0
-190 -191 -193 188 189 192 197 0
-190 -191 -193 -198 188 189 192 0
-190 -191 -193 -199 188 189 192 0
-190 -191 -194 188 189 192 193 0
-190 -191 -195 188 189 192 193 0
-190 -191 188 189 192 193 196 0
-190 -191 188 189 192 193 197 0
-190 -191 -198 188 189 192 193 0
-190 -191 188 189 192 193 199 0
-188 -189 -191 -193 -194 190 192 0
-188 -189 -191 -193 -195 190 192 0
-188 -189 -191 -193 190 192 196 0
-188 -189 -191 -193 190 192 197 0
-188 -189 -191 -193 -198 190 192 0
-188 -189 -191 -193 -199 190 192 0
-188 -189 -191 190 192 193 194 0
-188 -189 -191 190 192 193 195 0
-188 -189 -191 -196 190 192 193 0
-188 -189 -191 190 192 193 197 0
-188 -189 -191 -198 190 192 193 0
-188 -189 -191 190 192 193 199 0
-189 -191 -193 188 190 192 194 0
-189 -191 -193 188 190 192 195 0
-189 -191 -193 -196 188 190 192 0
-189 -191 -193 188 190 192 197 0
-189 -191 -193 -198 188 190 192 0
-189 -191 -193 -199 188 190 192 0
-189 -191 -194 188 190 192 193 0
-189 -191 188 190 192 193 195 0
-189 -191 -196 188 190 192 193 0
-189 -191 188 190 192 193 197 0
-189 -191 -198 188 190 192 193 0
-189 -191 188 190 192 193 199 0
-188 -191 -193 -194 189 190 192 0
-188 -191 -193 189 190 192 195 0
-188 -191 -193 -196 189 190 192 0
-188 -191 -193 189 190 192 197 0
-188 -191 -193 -198 189 190 192 0
-188 -191 -193 -199 189 190 192 0
-188 -191 189 190 192 193 194 0
-188 -191 -195 189 190 192 193 0
-188 -191 -196 189 190 192 193 0
-188 -191 189 190 192 193 197 0
-188 -191 -198 189 190 192 193 0
-188 -191 189 190 192 193 199 0
-191 -193 188 189 190 192 194 0
-191 -193 -195 188 189 190 192 0
-191 -193 -196 188 189 190 192 0
-191 -193 188 189 190 192 197 0
-191 -193 -198 188 189 190 192 0
-191 -193 -199 188 189 190 192 0
-191 -194 188 189 190 192 193 0
-191 -195 188 189 190 192 193 0
-191 -196 188 189 190 192 193 0
-191 188 189 190 192 193 197 0
-191 -198 188 189 190 192 193 0
-191 188 189 190 192 193 199 0
-188 -189 -190 -193 -194 191 192 0
-188 -189 -190 -193 -195 191 192 0
-188 -189 -190 -193 -196 191 192 0
-188 -189 -190 -193 191 192 197 0
-188 -189 -190 -193 -198 191 192 0
-188 -189 -190 -193 -199 191 192 0
-188 -189 -190 191 192 193 194 0
-188 -189 -190 191 192 193 195 0
-188 -189 -190 191 192 193 196 0
-188 -189 -190 -197 191 192 193 0
-188 -189 -190 -198 191 192 193 0
-188 -189 -190 191 192 193 199 0
-189 -190 -193 188 191 192 194 0
-189 -190 -193 188 191 192 195 0
-189 -190 -193 188 191 192 196 0
-189 -190 -193 -197 188 191 192 0
-189 -190 -193 -198 188 191 192 0
-189 -190 -193 -199 188 191 192 0
-189 -190 -194 188 191 192 193 0
-189 -190 188 191 192 193 195 0
-189 -190 188 191 192 193 196 0
-189 -190 -197 188 191 192 193 0
-189 -190 -198 188 191 192 193 0
-189 -190 188 191 192 193 199 0
-188 -190 -193 -194 189 191 192 0
-188 -190 -193 189 191 192 195 0
-188 -190 -193 189 191 192 196 0
-188 -190 -193 -197 189 191 192 0
-188 -190 -193 -198 189 191 192 0
-188 -190 -193 -199 189 191 192 0
-188 -190 189 191 192 193 194 0
-188 -190 -195 189 191 192 193 0
-188 -190 189 191 192 193 196 0
-188 -190 -197 189 191 192 193 0
-188 -190 -198 189 191 192 193 0
-188 -190 189 191 192 193 199 0
-190 -193 188 189 191 192 194 0
-190 -193 -195 188 189 191 192 0
-190 -193 188 189 191 192 196 0
-190 -193 -197 188 189 191 192 0
-190 -193 -198 188 189 191 192 0
-190 -193 -199 188 189 191 192 0
-190 -194 188 189 191 192 193 0
-190 -195 188 189 191 192 193 0
-190 188 189 191 192 193 196 0
-190 -197 188 189 191 192 193 0
-190 -198 188 189 191 192 193 0
-190 188 189 191 192 193 199 0
-188 -189 -193 -194 190 191 192 0
-188 -189 -193 -195 190 191 192 0
-188 -189 -193 190 191 192 196 0
-188 -189 -193 -197 190 191 192 0
-188 -189 -193 -198 190 191 192 0
-188 -189 -193 -199 190 191 192 0
-188 -189 190 191 192 193 194 0
-188 -189 190 191 192 193 195 0
-188 -189 -196 190 191 192 193 0
-188 -189 -197 190 191 192 193 0
-188 -189 -198 190 191 192 193 0
-188 -189 190 191 192 193 199 0
-189 -193 188 190 191 192 194 0
-189 -193 188 190 191 192 195 0
-189 -193 -196 188 190 191 192 0
-189 -193 -197 188 190 191 192 0
-189 -193 -198 188 190 191 192 0
-189 -193 -199 188 190 191 192 0
-189 -194 188 190 191 192 193 0
-189 188 190 191 192 193 195 0
-189 -196 188 190 191 192 193 0
-189 -197 188 190 191 192 193 0
-189 -198 188 190 191 192 193 0
-189 188 190 191 192 193 199 0
-188 -193 -194 189 190 191 192 0
-188 -193 189 190 191 192 195 0
-188 -193 -196 189 190 191 192 0
-188 -193 -197 189 190 191 192 0
-188 -193 -198 189 190 191 192 0
-188 -193 -199 189 190 191 192 0
-188 189 190 191 192 193 194 0
-188 -195 189 190 191 192 193 0
-188 -196 189 190 191 192 193 0
-188 -197 189 190 191 192 193 0
-188 -198 189 190 191 192 193 0
-188 189 190 191 192 193 199 0
-193 188 189 190 191 192 194 0
-193 -195 188 189 190 191 192 0
-193 -196 188 189 190 191 192 0
-193 -197 188 189 190 191 192 0
-193 -198 188 189 190 191 192 0
-193 -199 188 189 190 191 192 0
-194 188 189 190 191 192 193 0
-195 188 189 190 191 192 193 0
-196 188 189 190 191 192 193 0
-197 188 189 190 191 192 193 0
-198 188 189 190 191 192 193 0
188 189 190 191 192 193 199 0
-188 -189 -190 -191 -192 193 194 0
-188 -189 -190 -191 -192 193 195 0
-188 -189 -190 -191 -192 193 196 0
-188 -189 -190 -191 -192 193 197 0
-188 -189 -190 -191 -192 193 198 0
-188 -189 -190 -191 -192 193 199 0
-200 0
-201 0
-202 0
-203 0
-204 0
-205 0
-206 0
-112 -206 0
-112 -200 0
-10 -113 0
-1 -113 0
-11 -114 0
-2 -114 0
-12 -115 0
-3 -115 0
-13 -116 0
-4 -116 0
-14 -117 0
-5 -117 0
-15 -118 0
-6 -118 0
-16 -119 0
-7 -119 0
-17 -120 0
-8 -120 0
-122 -201 0
-122 -206 0
-27 -123 0
-10 -123 0
-28 -124 0
-11 -124 0
-29 -125 0
-12 -125 0
-30 -126 0
-13 -126 0
-31 -127 0
-14 -127 0
-32 -128 0
-15 -128 0
-33 -129 0
-16 -129 0
-34 -130 0
-17 -130 0
-132 -202 0
-132 -206 0
-44 -133 0
-10 -133 0
-45 -134 0
-11 -134 0
-46 -135 0
-12 -135 0
-47 -136 0
-13 -136 0
-48 -137 0
-14 -137 0
-49 -138 0
-15 -138 0
-50 -139 0
-16 -139 0
-51 -140 0
-17 -140 0
-142 -203 0
-142 -206 0
-61 -143 0
-10 -143 0
-62 -144 0
-11 -144 0
-63 -145 0
-12 -145 0
-64 -146 0
-13 -146 0
-65 -147 0
-14 -147 0
-66 -148 0
-15 -148 0
-67 -149 0
-16 -149 0
-68 -150 0
-17 -150 0
-152 -204 0
-152 -206 0
-78 -153 0
-10 -153 0
-79 -154 0
-11 -154 0
-80 -155 0
-12 -155 0
-81 -156 0
-13 -156 0
-82 -157 0
-14 -157 0
-83 -158 0
-15 -158 0
-84 -159 0
-16 -159 0
-85 -160 0
-17 -160 0
-162 -205 0
-162 -206 0
-95 -164 0
-10 -164 0
-96 -166 0
-11 -166 0
-97 -168 0
-12 -168 0
-98 -170 0
-13 -170 0
-99 -172 0
-14 -172 0
-100 -174 0
-15 -174 0
-101 -176 0
-16 -176 0
-102 -178 0
-17 -178 0
-163 206 0
-165 10 0
-167 11 0
-169 12 0
-171 13 0
-173 14 0
-175 15 0
-177 16 0
-179 17 0
-112 10 0
-19 -112 0
-112 1 0
-113 11 0
-20 -113 0
-113 2 0
-114 12 0
-21 -114 0
-114 3 0
-115 13 0
-22 -115 0
-115 4 0
-116 14 0
-23 -116 0
-116 5 0
-117 15 0
-24 -117 0
-117 6 0
-118 16 0
-25 -118 0
-118 7 0
-119 17 0
-26 -119 0
-119 8 0
-120 18 0
-120 -182 0
-120 9 0
-122 27 0
-36 -122 0
-122 10 0
-123 28 0
-37 -123 0
-123 11 0
-124 29 0
-38 -124 0
-124 12 0
-125 30 0
-39 -125 0
-125 13 0
-126 31 0
-40 -126 0
-126 14 0
-127 32 0
-41 -127 0
-127 15 0
-128 33 0
-42 -128 0
-128 16 0
-129 34 0
-43 -129 0
-129 17 0
-130 35 0
-130 -183 0
-130 18 0
-132 44 0
-53 -132 0
-132 10 0
-133 45 0
-54 -133 0
-133 11 0
-134 46 0
-55 -134 0
-134 12 0
-135 47 0
-56 -135 0
-135 13 0
-136 48 0
-57 -136 0
-136 14 0
-137 49 0
-58 -137 0
-137 15 0
-138 50 0
-59 -138 0
-138 16 0
-139 51 0
-60 -139 0
-139 17 0
-140 52 0
-140 -184 0
-140 18 0
-142 61 0
-70 -142 0
-142 10 0
-143 62 0
-71 -143 0
-143 11 0
-144 63 0
-72 -144 0
-144 12 0
-145 64 0
-73 -145 0
-145 13 0
-146 65 0
-74 -146 0
-146 14 0
-147 66 0
-75 -147 0
-147 15 0
-148 67 0
-76 -148 0
-148 16 0
-149 68 0
-77 -149 0
-149 17 0
-150 69 0
-150 -185 0
-150 18 0
-152 78 0
-87 -152 0
-152 10 0
-153 79 0
-88 -153 0
-153 11 0
-154 80 0
-89 -154 0
-154 12 0
-155 81 0
-90 -155 0
-155 13 0
-156 82 0
-91 -156 0
-156 14 0
-157 83 0
-92 -157 0
-157 15 0
-158 84 0
-93 -158 0
-158 16 0
-159 85 0
-94 -159 0
-159 17 0
-160 86 0
-160 -186 0
-160 18 0
-162 95 0
-104 -162 0
-162 10 0
-164 96 0
-105 -164 0
-164 11 0
-166 97 0
-106 -166 0
-166 12 0
-168 98 0
-107 -168 0
-168 13 0
-170 99 0
-108 -170 0
-170 14 0
-172 100 0
-109 -172 0
-172 15 0
-174 101 0
-110 -174 0
-174 16 0
-176 102 0
-111 -176 0
-176 17 0
-178 103 0
-178 -187 0
-178 18 0
-10 -163 0
-11 -165 0
-12 -167 0
-13 -169 0
-14 -171 0
-15 -173 0
-16 -175 0
-17 -177 0
-18 -179 0
-1 112 200 0
-2 1 113 0
-3 2 114 0
-4 3 115 0
-5 4 116 0
-6 5 117 0
-7 6 118 0
-8 7 119 0
-9 8 120 0
-200 1 0
-1 2 0
-2 3 0
-3 4 0
-4 5 0
-5 6 0
-6 7 0
-7 8 0
-8 9 0
-10 112 122 132 142 152 162 206 0
-11 10 113 123 133 143 153 164 0
-12 11 114 124 134 144 154 166 0
-13 12 115 125 135 145 155 168 0
-14 13 116 126 136 146 156 170 0
-15 14 117 127 137 147 157 172 0
-16 15 118 128 138 148 158 174 0
-17 16 119 129 139 149 159 176 0
-18 17 120 130 140 150 160 178 0
-206 10 163 0
-10 11 165 0
-11 12 167 0
-12 13 169 0
-13 14 171 0
-14 15 173 0
-15 16 175 0
-16 17 177 0
-17 18 179 0
-19 199 0
-20 19 0
-21 20 0
-22 21 0
-23 22 0
-24 23 0
-25 24 0
-26 25 0
-182 26 0
-199 19 112 0
-19 20 113 0
-20 21 114 0
-21 22 115 0
-22 23 116 0
-23 24 117 0
-24 25 118 0
-25 26 119 0
-26 120 182 0
-27 122 201 0
-28 27 123 0
-29 28 124 0
-30 29 125 0
-31 30 126 0
-32 31 127 0
-33 32 128 0
-34 33 129 0
-35 34 130 0
-201 27 0
-27 28 0
-28 29 0
-29 30 0
-30 31 0
-31 32 0
-32 33 0
-33 34 0
-34 35 0
-36 194 0
-37 36 0
-38 37 0
-39 38 0
-40 39 0
-41 40 0
-42 41 0
-43 42 0
-183 43 0
-194 36 122 0
-36 37 123 0
-37 38 124 0
-38 39 125 0
-39 40 126 0
-40 41 127 0
-41 42 128 0
-42 43 129 0
-43 130 183 0
-44 132 202 0
-45 44 133 0
-46 45 134 0
-47 46 135 0
-48 47 136 0
-49 48 137 0
-50 49 138 0
-51 50 139 0
-52 51 140 0
-202 44 0
-44 45 0
-45 46 0
-46 47 0
-47 48 0
-48 49 0
-49 50 0
-50 51 0
-51 52 0
-53 195 0
-54 53 0
-55 54 0
-56 55 0
-57 56 0
-58 57 0
-59 58 0
-60 59 0
-184 60 0
-195 53 132 0
-53 54 133 0
-54 55 134 0
-55 56 135 0
-56 57 136 0
-57 58 137 0
-58 59 138 0
-59 60 139 0
-60 140 184 0
-61 142 203 0
-62 61 143 0
-63 62 144 0
-64 63 145 0
-65 64 146 0
-66 65 147 0
-67 66 148 0
-68 67 149 0
-69 68 150 0
-203 61 0
-61 62 0
-62 63 0
-63 64 0
-64 65 0
-65 66 0
-66 67 0
-67 68 0
-68 69 0
-70 196 0
-71 70 0
-72 71 0
-73 72 0
-74 73 0
-75 74 0
-76 75 0
-77 76 0
-185 77 0
-196 70 142 0
-70 71 143 0
-71 72 144 0
-72 73 145 0
-73 74 146 0
-74 75 147 0
-75 76 148 0
-76 77 149 0
-77 150 185 0
-78 152 204 0
-79 78 153 0
-80 79 154 0
-81 80 155 0
-82 81 156 0
-83 82 157 0
-84 83 158 0
-85 84 159 0
-86 85 160 0
-204 78 0
-78 79 0
-79 80 0
-80 81 0
-81 82 0
-82 83 0
-83 84 0
-84 85 0
-85 86 0
-87 197 0
-88 87 0
-89 88 0
-90 89 0
-91 90 0
-92 91 0
-93 92 0
-94 93 0
-186 94 0
-197 87 152 0
-87 88 153 0
-88 89 154 0
-89 90 155 0
-90 91 156 0
-91 92 157 0
-92 93 158 0
-93 94 159 0
-94 160 186 0
-95 162 205 0
-96 95 164 0
-97 96 166 0
-98 97 168 0
-99 98 170 0
-100 99 172 0
-101 100 174 0
-102 101 176 0
-103 102 178 0
-205 95 0
-95 96 0
-96 97 0
-97 98 0
-98 99 0
-99 100 0
-100 101 0
-101 102 0
-102 103 0
-104 198 0
-105 104 0
-106 105 0
-107 106 0
-108 107 0
-109 108 0
-110 109 0
-111 110 0
-187 111 0
-198 104 162 0
-104 105 164 0
-105 106 166 0
-106 107 168 0
-107 108 170 0
-108 109 172 0
-109 110 174 0
-110 111 176 0
-111 178 187 0
-112 -122 0
-113 -123 0
-114 -124 0
-115 -125 0
-116 -126 0
-117 -127 0
-118 -128 0
-119 -129 0
-120 -130 0
-121 -131 0
-112 -132 0
-113 -133 0
-114 -134 0
-115 -135 0
-116 -136 0
-117 -137 0
-118 -138 0
-119 -139 0
-120 -140 0
-121 -141 0
-112 -142 0
-113 -143 0
-114 -144 0
-115 -145 0
-116 -146 0
-117 -147 0
-118 -148 0
-119 -149 0
-120 -150 0
-121 -151 0
-112 -152 0
-113 -153 0
-114 -154 0
-115 -155 0
-116 -156 0
-117 -157 0
-118 -158 0
-119 -159 0
-120 -160 0
-121 -161 0
-112 -162 0
-113 -164 0
-114 -166 0
-115 -168 0
-116 -170 0
-117 -172 0
-118 -174 0
-119 -176 0
-120 -178 0
-121 -180 0
-112 -163 0
-113 -165 0
-114 -167 0
-115 -169 0
-116 -171 0
-117 -173 0
-118 -175 0
-119 -177 0
-120 -179 0
-121 -181 0
-122 -132 0
-123 -133 0
-124 -134 0
-125 -135 0
-126 -136 0
-127 -137 0
-128 -138 0
-129 -139 0
-130 -140 0
-131 -141 0
-122 -142 0
-123 -143 0
-124 -144 0
-125 -145 0
-126 -146 0
-127 -147 0
-128 -148 0
-129 -149 0
-130 -150 0
-131 -151 0
-122 -152 0
-123 -153 0
-124 -154 0
-125 -155 0
-126 -156 0
-127 -157 0
-128 -158 0
-129 -159 0
-130 -160 0
-131 -161 0
-122 -162 0
-123 -164 0
-124 -166 0
-125 -168 0
-126 -170 0
-127 -172 0
-128 -174 0
-129 -176 0
-130 -178 0
-131 -180 0
-122 -163 0
-123 -165 0
-124 -167 0
-125 -169 0
-126 -171 0
-127 -173 0
-128 -175 0
-129 -177 0
-130 -179 0
-131 -181 0
-132 -142 0
-133 -143 0
-134 -144 0
-135 -145 0
-136 -146 0
-137 -147 0
-138 -148 0
-139 -149 0
-140 -150 0
-141 -151 0
-132 -152 0
-133 -153 0
-134 -154 0
-135 -155 0
-136 -156 0
-137 -157 0
-138 -158 0
-139 -159 0
-140 -160 0
-141 -161 0
-132 -162 0
-133 -164 0
-134 -166 0
-135 -168 0
-136 -170 0
-137 -172 0
-138 -174 0
-139 -176 0
-140 -178 0
-141 -180 0
-132 -163 0
-133 -165 0
-134 -167 0
-135 -169 0
-136 -171 0
-137 -173 0
-138 -175 0
-139 -177 0
-140 -179 0
-141 -181 0
-142 -152 0
-143 -153 0
-144 -154 0
-145 -155 0
-146 -156 0
-147 -157 0
-148 -158 0
-149 -159 0
-150 -160 0
-151 -161 0
-142 -162 0
-143 -164 0
-144 -166 0
-145 -168 0
-146 -170 0
-147 -172 0
-148 -174 0
-149 -176 0
-150 -178 0
-151 -180 0
-142 -163 0
-143 -165 0
-144 -167 0
-145 -169 0
-146 -171 0
-147 -173 0
-148 -175 0
-149 -177 0
-150 -179 0
-151 -181 0
-152 -162 0
-153 -164 0
-154 -166 0
-155 -168 0
-156 -170 0
-157 -172 0
-158 -174 0
-159 -176 0
-160 -178 0
-161 -180 0
-152 -163 0
-153 -165 0
-154 -167 0
-155 -169 0
-156 -171 0
-157 -173 0
-158 -175 0
-159 -177 0
-160 -179 0
-161 -181 0
-162 -163 0
-164 -165 0
-166 -167 0
-168 -169 0
-170 -171 0
-172 -173 0
-174 -175 0
-176 -177 0
-178 -179 0
-180 -181 0
-182 0
-183 0
-184 0
-185 0
-186 0
-187 0
